c
p cnf 24 66
-13 11 0
9 -8 0
-15 -14 0
-10 5 0
-20 13 0
15 1 0
23 -17 0
-6 -5 0
-11 23 0
-24 -5 0
14 -22 0
23 1 0
8 -6 0
9 18 0
18 8 0
12 -2 0
2 -22 0
10 24 0
19 3 0
4 18 0
15 9 0
9 5 0
14 9 0
21 10 0
-22 -3 0
4 -3 0
-11 -22 0
14 -23 0
-5 4 0
-18 -17 0
-6 12 0
5 -2 0
3 -7 0
-17 11 0
24 -16 0
1 -18 0
-17 -9 0
15 -21 0
-24 -14 0
-13 -11 0
22 -18 0
24 20 0
-16 10 0
-23 11 0
-1 -23 0
-3 -10 0
-17 23 0
17 18 0
23 9 0
14 13 0
-16 -17 0
2 -21 0
7 -17 0
16 19 0
-12 13 0
-18 6 0
-24 -10 0
6 12 0
5 17 0
-21 -2 0
7 5 0
16 10 0
-15 18 0
20 22 0
-12 -3 0
-13 -19 0
